solution status: optimal solution found
objective value:                                    4
C0246                                               1 	(obj:0)
C0248                                               1 	(obj:0)
C0249                                               1 	(obj:0)
C0251                                               1 	(obj:0)
C0259                                               1 	(obj:0)
C0260                                               1 	(obj:0)
C0261                                               1 	(obj:0)
C0262                                               1 	(obj:0)
C0385                                               1 	(obj:0)
C0386                                               1 	(obj:0)
C0387                                               1 	(obj:0)
C0389                                               1 	(obj:0)
C0394                                               1 	(obj:0)
C0396                                               1 	(obj:0)
C0398                                               1 	(obj:0)
C0400                                               1 	(obj:0)
C0469                                               1 	(obj:0)
C0471                                               1 	(obj:0)
C0479                                               1 	(obj:0)
C0480                                               1 	(obj:0)
C0484                                               1 	(obj:0)
C0487                                               1 	(obj:0)
C0497                                               1 	(obj:0)
C0498                                               1 	(obj:0)
C1099                                               1 	(obj:0)
C1100                                               1 	(obj:0)
C1103                                               1 	(obj:0)
C1104                                               1 	(obj:0)
C1113                                               1 	(obj:0)
C1114                                               1 	(obj:0)
C1117                                               1 	(obj:0)
C1118                                               1 	(obj:0)
C1122                                               1 	(obj:0)
C1123                                               1 	(obj:0)
C1128                                               1 	(obj:0)
C1129                                               1 	(obj:0)
C1131                                               1 	(obj:0)
C1132                                               1 	(obj:0)
C1133                                               1 	(obj:0)
C1134                                               1 	(obj:0)
C1142                                               1 	(obj:0)
C1144                                               1 	(obj:0)
C1145                                               1 	(obj:0)
C1146                                               1 	(obj:0)
C1409                                               1 	(obj:0)
C1410                                               1 	(obj:0)
C1413                                               1 	(obj:0)
C1414                                               1 	(obj:0)
C1417                                               1 	(obj:0)
C1418                                               1 	(obj:0)
C1420                                               1 	(obj:0)
C1421                                               1 	(obj:0)
C1423                                               1 	(obj:0)
C1424                                               1 	(obj:0)
C1427                                               1 	(obj:0)
C1428                                               1 	(obj:0)
C1431                                               1 	(obj:0)
C1432                                               1 	(obj:0)
C1436                                               1 	(obj:0)
C1438                                               1 	(obj:0)
C1449                                               1 	(obj:0)
C1450                                               1 	(obj:0)
C1451                                               1 	(obj:0)
C1453                                               1 	(obj:0)
C1593                                               1 	(obj:0)
C1598                                               1 	(obj:0)
C1603                                               1 	(obj:0)
C1604                                               1 	(obj:0)
C1615                                               1 	(obj:0)
C1616                                               1 	(obj:0)
C1627                                               1 	(obj:0)
C1630                                               1 	(obj:0)
C1641                                               1 	(obj:0)
C1647                                               1 	(obj:0)
C1660                                               1 	(obj:0)
C1663                                               1 	(obj:0)
C1839                                               1 	(obj:0)
C1860                                               1 	(obj:0)
C1882                                               1 	(obj:0)
C1908                                               1 	(obj:0)
C1934                                               1 	(obj:0)
C1955                                               1 	(obj:0)
C1978                                               1 	(obj:0)
C2006                                               1 	(obj:0)
C2026                                               1 	(obj:0)
C2062                                               1 	(obj:0)
C2083                                               1 	(obj:0)
C2102                                               1 	(obj:0)
C2113                                               1 	(obj:0)
C2150                                               1 	(obj:0)
C2170                                               1 	(obj:0)
C2185                                               1 	(obj:0)
C2231                                               1 	(obj:0)
C2245                                               1 	(obj:0)
C2271                                               1 	(obj:0)
C2293                                               1 	(obj:0)
C2312                                               1 	(obj:0)
C2346                                               1 	(obj:0)
C2372                                               1 	(obj:0)
C2377                                               1 	(obj:0)
C2401                                               1 	(obj:0)
C2435                                               1 	(obj:0)
C2462                                               1 	(obj:0)
C2485                                               1 	(obj:0)
C2498                                               1 	(obj:0)
C2535                                               1 	(obj:0)
C2545                                               1 	(obj:0)
C2569                                               1 	(obj:0)
C2593                                               1 	(obj:0)
C2617                                               1 	(obj:0)
C2641                                               1 	(obj:0)
C2665                                               1 	(obj:0)
C2703                                               1 	(obj:0)
C2732                                               1 	(obj:0)
C2737                                               1 	(obj:0)
C2780                                               1 	(obj:0)
C2785                                               1 	(obj:0)
C2815                                               1 	(obj:0)
C2833                                               1 	(obj:0)
C2871                                               1 	(obj:0)
C2881                                               1 	(obj:0)
C2905                                               1 	(obj:0)
C2930                                               1 	(obj:0)
C2966                                               1 	(obj:0)
C2977                                               1 	(obj:0)
C3013                                               1 	(obj:0)
C3029                                               1 	(obj:0)
C3052                                               1 	(obj:0)
C3090                                               1 	(obj:0)
C3097                                               1 	(obj:0)
C3139                                               1 	(obj:0)
C3145                                               1 	(obj:0)
C3170                                               1 	(obj:0)
C3204                                               1 	(obj:0)
C3240                                               1 	(obj:0)
C3264                                               1 	(obj:0)
C3275                                               1 	(obj:0)
C3301                                               1 	(obj:0)
C3332                                               1 	(obj:0)
C3347                                               1 	(obj:0)
C3377                                               1 	(obj:0)
C3395                                               1 	(obj:0)
C3409                                               1 	(obj:0)
C3446                                               1 	(obj:0)
C3460                                               1 	(obj:0)
C3485                                               1 	(obj:0)
C3510                                               1 	(obj:0)
C3529                                               1 	(obj:0)
C3553                                               1 	(obj:0)
C3577                                               1 	(obj:0)
C3622                                               1 	(obj:0)
C3625                                               1 	(obj:0)
C3668                                               1 	(obj:0)
C3673                                               1 	(obj:0)
C3711                                               1 	(obj:0)
C3739                                               1 	(obj:0)
C3758                                               1 	(obj:0)
C3787                                               1 	(obj:0)
C3811                                               1 	(obj:0)
C3838                                               1 	(obj:0)
C3853                                               1 	(obj:0)
C3874                                               1 	(obj:0)
C3907                                               1 	(obj:0)
C3926                                               1 	(obj:0)
C3953                                               1 	(obj:0)
C3981                                               1 	(obj:0)
C3996                                               1 	(obj:0)
C4023                                               1 	(obj:0)
C4046                                               1 	(obj:0)
C4068                                               1 	(obj:0)
C4100                                               1 	(obj:0)
C4126                                               1 	(obj:0)
C4145                                               1 	(obj:0)
C4169                                               1 	(obj:0)
C4197                                               1 	(obj:0)
C4217                                               1 	(obj:0)
C4239                                               1 	(obj:0)
C4265                                               1 	(obj:0)
C4290                                               1 	(obj:0)
C4315                                               1 	(obj:0)
C4331                                               1 	(obj:0)
C4368                                               1 	(obj:0)
C4387                                               1 	(obj:0)
C4393                                               1 	(obj:0)
C4419                                               1 	(obj:0)
C4452                                               1 	(obj:0)
C4466                                               1 	(obj:0)
C4512                                               1 	(obj:0)
C4536                                               1 	(obj:0)
C4559                                               1 	(obj:0)
C4569                                               1 	(obj:0)
C4605                                               1 	(obj:0)
C4629                                               1 	(obj:0)
C4652                                               1 	(obj:0)
C4677                                               1 	(obj:0)
C4700                                               1 	(obj:0)
C4726                                               1 	(obj:0)
C4739                                               1 	(obj:0)
C4753                                               1 	(obj:0)
C4797                                               1 	(obj:0)
C4801                                               1 	(obj:0)
C4845                                               1 	(obj:0)
C4849                                               1 	(obj:0)
C4873                                               1 	(obj:0)
C4899                                               1 	(obj:0)
C4921                                               1 	(obj:0)
C4968                                               1 	(obj:0)
C4992                                               1 	(obj:0)
C4998                                               1 	(obj:0)
C5019                                               1 	(obj:0)
C5054                                               1 	(obj:0)
C5078                                               1 	(obj:0)
C5110                                               1 	(obj:0)
C5132                                               1 	(obj:0)
C5160                                               1 	(obj:0)
C5173                                               1 	(obj:0)
C5186                                               1 	(obj:0)
C5211                                               1 	(obj:0)
C5241                                               1 	(obj:0)
C5257                                               1 	(obj:0)
C5291                                               1 	(obj:1)
C5297                                               1 	(obj:1)
C5300                                               1 	(obj:1)
C5301                                               1 	(obj:1)
C5365                                               1 	(obj:0)
C5367                                               1 	(obj:0)
C5368                                               1 	(obj:0)
C5369                                               1 	(obj:0)
C5370                                               1 	(obj:0)
C5401                                               1 	(obj:0)
C5402                                               1 	(obj:0)
C5403                                               1 	(obj:0)
C5404                                               1 	(obj:0)
C5406                                               1 	(obj:0)
C5422                                               1 	(obj:0)
C5423                                               1 	(obj:0)
C5424                                               1 	(obj:0)
C5426                                               1 	(obj:0)
C5428                                               1 	(obj:0)
C5430                                               1 	(obj:0)
C5480                                               1 	(obj:0)
C5499                                               1 	(obj:0)
C5506                                               1 	(obj:0)
C5507                                               1 	(obj:0)
C5509                                               1 	(obj:0)
C5511                                               1 	(obj:0)
C5751                                               2 	(obj:0)
C5749                                               4 	(obj:0)
C5747                                               2 	(obj:0)
C5746                                               4 	(obj:0)
C5739                                               4 	(obj:0)
C5720                                               4 	(obj:0)
C5670                                               2 	(obj:0)
C5668                                               2 	(obj:0)
C5666                                               2 	(obj:0)
C5664                                               2 	(obj:0)
C5663                                               2 	(obj:0)
C5662                                               2 	(obj:0)
C5646                                               4 	(obj:0)
C5644                                               4 	(obj:0)
C5643                                               4 	(obj:0)
C5642                                               4 	(obj:0)
C5641                                               4 	(obj:0)
C5610                                               4 	(obj:0)
C5609                                               4 	(obj:0)
C5608                                               4 	(obj:0)
C5607                                               4 	(obj:0)
C5605                                               4 	(obj:0)
C5541                                               4 	(obj:0)
C5540                                               4 	(obj:0)
C5537                                               8 	(obj:0)
C5531                                               8 	(obj:0)
